Hg In Sn                                
   1.00000000000000     
    16.5070906599999994   -1.5386889399999999    0.0002284600000000
    -1.6632822000000000   13.6146955399999996   -6.0702155400000004
     0.0000565100000000   -0.0001140800000000    6.0700903100000003
   Hg   In   Sn
    16    20    12
Direct
     0.0641511117224432    0.5291957969830133    0.8201150308590800
     0.5781540206087187    0.9139851899870729    0.2837153305707402
     1.0424250127606554    0.6925286076103216    0.5480318809260659
     0.5788785785632301    0.1335047383694059    0.8232292869448193
     0.7259196543029840   -0.0381986739507229    1.0466400716568278
     0.5653856499424056    0.3813836666298928    0.4867822725071889
     0.9753684564155989    0.1892272890063637    0.7879694892085061
     0.7423225695247828    0.4718742179435373    0.9376618427378099
     0.2013794513049731    0.4339078452765617    1.0707272165545039
     0.1089627489579766    0.7729980713456727    0.0547558311392247
     0.4745485692402282    0.7146411747428989    0.7834898240315731
     0.5963977333988809    0.5487585968180726    0.3861257990931156
     0.2513371678049727   -0.0314012999893849    1.0711840340894048
     0.0373204688872867    0.3325169225899342    0.3993930848328320
     0.3740423445691637    0.1697775790770904    0.8769172488266977
     0.1165779799138650    0.0419647297289817    0.3453477110992438
     0.4526019737483663    0.8408310260776392    0.5119672273620516
    -0.0847000104957666   -0.0339539234907994   -0.1373485415931369
     0.4168468632438217    0.5107376751058760    1.2232627136406082
     0.7668190940407198    0.6956168809004653    0.6187084306730005
     0.6297701708669797    0.7903477705608700    0.6921489883153877
     0.9278590118367835    0.7893195889478688    0.4164366651760275
     0.5490575307540333    0.6924544747737272    0.1740647712459201
     0.9296562964818874    0.7778453962289579   -0.0745738696222265
     0.1317320203518945    0.2382414749329969    0.6039639612964640
     0.3069078983370397    0.3114973703745361    0.7554583923461419
     0.8228750041304453    0.1196328165579064    0.9167550713887648
     0.3187611605641191    0.3230328103570961    0.2443466587833233
     0.9036695334886174    0.3745438074514582    0.6638869972499685
     0.4274070613894342    0.2260584441113592    0.4252887120446610
    -0.0899045631886047    0.5736490291486276    0.1127606456773731
     0.4310175688995517    1.0175821670508496    0.9462392880418548
     0.8347717423226095    0.1310978262644663    0.3995008154295718
     0.1875048494151536    0.6278323728320848    0.3306540972878892
     0.7426288271803623    0.2632511475526929    0.8001926082139218
     0.2985961828097405    0.7776478476801452    0.7356330745552402
     0.9139623390928994    0.9691430295492993    0.3697650633742501
     0.7554992188536608    0.7055829970352882    0.1205671335112104
     0.8638479735773840    0.5475139902686524    0.5681468867125750
     0.2908691931895466    0.7776255749832067    0.2087003012578205
     0.3949222719036501    1.0087308429440376    0.4081890102053118
     0.4048733169867716    0.5073491668761525    0.7253444578844339
     0.2281429579774609   -0.0510385676077492    0.5879332787821228
     0.1363849809057724    0.2177442755252645    0.0782948645935172
     0.9101265643263652    0.3755696149036519    0.1424962821210032
     0.7544457189392236    0.2974734427813554    0.3270534166965915
     0.2101924668624442    0.4570873237840880    0.5800518377932703
     0.7376733418376334   -0.0667178830665296    0.5084526492996463
 
  0.29223320E-03  0.72119380E-03  0.21780652E-02
  0.20830886E-03 -0.58655465E-03 -0.51649744E-03
 -0.49154565E-03 -0.20810641E-02 -0.10114942E-02
  0.10221745E-03  0.50065411E-03  0.34273852E-03
  0.12642302E-02 -0.11262754E-03  0.18880179E-02
 -0.54360305E-03 -0.16092446E-02 -0.18679789E-02
  0.38418678E-03 -0.86077363E-03  0.17636738E-02
 -0.26004637E-02 -0.15100074E-02 -0.78496052E-04
  0.83862468E-03  0.12784193E-03 -0.19514853E-02
  0.13596957E-02 -0.60243030E-03  0.10460146E-04
 -0.81899424E-04  0.18262863E-04  0.15617145E-02
 -0.20182120E-02  0.65247557E-03  0.35692712E-04
 -0.58599520E-03  0.12643764E-03 -0.37436983E-03
  0.92145523E-03  0.11063623E-02  0.10327131E-02
 -0.22483350E-02 -0.34285935E-03  0.11196447E-02
 -0.15454186E-03 -0.13828406E-03 -0.63217943E-03
  0.45437564E-03  0.24741695E-02  0.48493850E-03
  0.88146376E-03  0.24385964E-02 -0.51367960E-03
 -0.18435872E-03 -0.21679599E-02  0.33865944E-02
 -0.12462962E-03  0.73729837E-04 -0.31431702E-02
 -0.15491303E-02  0.10791914E-02  0.71272059E-03
  0.10871176E-02  0.14521425E-02 -0.13448846E-04
 -0.32427722E-03  0.80405268E-03 -0.15624526E-02
 -0.10908457E-02 -0.16337507E-02 -0.18187026E-02
 -0.12397904E-02 -0.22954937E-02 -0.18937590E-04
  0.13453434E-02  0.32221022E-03 -0.29820327E-03
  0.88331207E-03  0.15139088E-02 -0.26881832E-03
 -0.27572868E-02 -0.17279691E-02  0.54940726E-03
 -0.75561997E-03  0.79849318E-03 -0.10107853E-02
 -0.26390246E-02 -0.88696256E-03 -0.15635013E-03
 -0.20853775E-03  0.10385258E-02 -0.15198823E-02
 -0.17520058E-03  0.15409271E-02  0.80902430E-03
  0.34280958E-02 -0.62277619E-03 -0.11673622E-02
  0.34659253E-03 -0.30642638E-03  0.11417458E-03
  0.98741365E-03 -0.28091679E-02  0.17070500E-03
  0.82014731E-03 -0.86817923E-03 -0.73489285E-03
  0.16240934E-02 -0.12046679E-02 -0.96182526E-03
 -0.59669802E-03  0.18184129E-05 -0.26089267E-02
  0.40270634E-02  0.23767678E-02  0.16416805E-02
  0.13214191E-02 -0.18955137E-03  0.84101249E-04
 -0.12341419E-03  0.21020553E-02  0.34514511E-04
 -0.45455843E-03  0.56954122E-03  0.20262105E-02
 -0.61873395E-03 -0.26203949E-03  0.13251538E-02
 -0.16487877E-02  0.44253228E-03 -0.10425059E-02
  0.29328621E-02  0.17940019E-02 -0.20693258E-03
  0.70699203E-03 -0.13185592E-02 -0.62577574E-03
 -0.73017952E-03  0.20266216E-02  0.77191075E-03
  0.14893656E-04  0.12083245E-02 -0.54955805E-03
 
           1
   1.00000000000000     
  0.35859116E+01  0.98970223E-03  0.10293518E-02  0.35849020E+01
  0.64174417E-01  0.52925141E+00  0.82052946E+00
  0.57816239E+00  0.91394305E+00  0.28358810E+00
  0.42379313E-01  0.69237059E+00  0.54770722E+00
  0.57888859E+00  0.13354264E+00  0.82332366E+00
  0.72599628E+00  0.96180172E+00  0.46951495E-01
  0.56534029E+00  0.38126034E+00  0.48635121E+00
  0.97538555E+00  0.18916600E+00  0.78819875E+00
  0.74215191E+00  0.47174402E+00  0.93751872E+00
  0.20143180E+00  0.43392315E+00  0.70421026E-01
  0.10904156E+00  0.77296273E+00  0.54722209E-01
  0.47454369E+00  0.71464197E+00  0.78374790E+00
  0.59627895E+00  0.54879310E+00  0.38616618E+00
  0.25130221E+00  0.96860404E+00  0.71127696E-01
  0.37385215E-01  0.33260550E+00  0.39965180E+00
  0.37390200E+00  0.16973654E+00  0.87706066E+00
  0.11656748E+00  0.41953385E-01  0.34523222E+00
  0.45264834E+00  0.84101800E+00  0.51223409E+00
  0.91537226E+00  0.96623336E+00  0.86275412E+00
  0.41681934E+00  0.51057533E+00  0.22365828E+00
  0.76681201E+00  0.69562149E+00  0.61819523E+00
  0.62968332E+00  0.79041722E+00  0.69233586E+00
  0.92793650E+00  0.78943501E+00  0.41654987E+00
  0.54904368E+00  0.69251197E+00  0.17386486E+00
  0.92957722E+00  0.77771646E+00  0.92499757E+00
  0.13163886E+00  0.23806234E+00  0.60378171E+00
  0.30699275E+00  0.31153063E+00  0.75544252E+00
  0.82294046E+00  0.11975141E+00  0.91682938E+00
  0.31857926E+00  0.32288533E+00  0.24428970E+00
  0.90362921E+00  0.37459790E+00  0.66377457E+00
  0.42723871E+00  0.22597427E+00  0.42517878E+00
  0.91009043E+00  0.57372474E+00  0.11258597E+00
  0.43101837E+00  0.17695441E-01  0.94648584E+00
  0.83497715E+00  0.13107530E+00  0.39928596E+00
  0.18752379E+00  0.62781201E+00  0.33065254E+00
  0.74266830E+00  0.26304927E+00  0.80001885E+00
  0.29863994E+00  0.77758902E+00  0.73545318E+00
  0.91405284E+00  0.96906477E+00  0.36952835E+00
  0.75546267E+00  0.70557900E+00  0.12013333E+00
  0.86411254E+00  0.54771847E+00  0.56862181E+00
  0.29094875E+00  0.77762064E+00  0.20870922E+00
  0.39493045E+00  0.88861641E-02  0.40835002E+00
  0.40484973E+00  0.50738834E+00  0.72571743E+00
  0.22810308E+00  0.94893768E+00  0.58812784E+00
  0.13628726E+00  0.21776573E+00  0.78144583E-01
  0.91031971E+00  0.37572321E+00  0.14261579E+00
  0.75447917E+00  0.29738037E+00  0.32685725E+00
  0.21016289E+00  0.45723284E+00  0.58032452E+00
  0.73768330E+00  0.93337199E+00  0.50845199E+00
  0.00000000E+00  0.00000000E+00  0.00000000E+00
  0.00000000E+00  0.00000000E+00  0.00000000E+00
  0.00000000E+00  0.00000000E+00  0.00000000E+00
  0.00000000E+00  0.00000000E+00  0.00000000E+00
  0.00000000E+00  0.00000000E+00  0.00000000E+00
  0.00000000E+00  0.00000000E+00  0.00000000E+00
  0.00000000E+00  0.00000000E+00  0.00000000E+00
  0.00000000E+00  0.00000000E+00  0.00000000E+00
  0.00000000E+00  0.00000000E+00  0.00000000E+00
  0.00000000E+00  0.00000000E+00  0.00000000E+00
  0.00000000E+00  0.00000000E+00  0.00000000E+00
  0.00000000E+00  0.00000000E+00  0.00000000E+00
  0.00000000E+00  0.00000000E+00  0.00000000E+00
  0.00000000E+00  0.00000000E+00  0.00000000E+00
  0.00000000E+00  0.00000000E+00  0.00000000E+00
  0.00000000E+00  0.00000000E+00  0.00000000E+00
  0.00000000E+00  0.00000000E+00  0.00000000E+00
  0.00000000E+00  0.00000000E+00  0.00000000E+00
  0.00000000E+00  0.00000000E+00  0.00000000E+00
  0.00000000E+00  0.00000000E+00  0.00000000E+00
  0.00000000E+00  0.00000000E+00  0.00000000E+00
  0.00000000E+00  0.00000000E+00  0.00000000E+00
  0.00000000E+00  0.00000000E+00  0.00000000E+00
  0.00000000E+00  0.00000000E+00  0.00000000E+00
  0.00000000E+00  0.00000000E+00  0.00000000E+00
  0.00000000E+00  0.00000000E+00  0.00000000E+00
  0.00000000E+00  0.00000000E+00  0.00000000E+00
  0.00000000E+00  0.00000000E+00  0.00000000E+00
  0.00000000E+00  0.00000000E+00  0.00000000E+00
  0.00000000E+00  0.00000000E+00  0.00000000E+00
  0.00000000E+00  0.00000000E+00  0.00000000E+00
  0.00000000E+00  0.00000000E+00  0.00000000E+00
  0.00000000E+00  0.00000000E+00  0.00000000E+00
  0.00000000E+00  0.00000000E+00  0.00000000E+00
  0.00000000E+00  0.00000000E+00  0.00000000E+00
  0.00000000E+00  0.00000000E+00  0.00000000E+00
  0.00000000E+00  0.00000000E+00  0.00000000E+00
  0.00000000E+00  0.00000000E+00  0.00000000E+00
  0.00000000E+00  0.00000000E+00  0.00000000E+00
  0.00000000E+00  0.00000000E+00  0.00000000E+00
  0.00000000E+00  0.00000000E+00  0.00000000E+00
  0.00000000E+00  0.00000000E+00  0.00000000E+00
  0.00000000E+00  0.00000000E+00  0.00000000E+00
  0.00000000E+00  0.00000000E+00  0.00000000E+00
  0.00000000E+00  0.00000000E+00  0.00000000E+00
  0.00000000E+00  0.00000000E+00  0.00000000E+00
  0.00000000E+00  0.00000000E+00  0.00000000E+00
  0.00000000E+00  0.00000000E+00  0.00000000E+00
  0.00000000E+00  0.00000000E+00  0.00000000E+00
  0.00000000E+00  0.00000000E+00  0.00000000E+00
  0.00000000E+00  0.00000000E+00  0.00000000E+00
  0.00000000E+00  0.00000000E+00  0.00000000E+00
  0.00000000E+00  0.00000000E+00  0.00000000E+00
  0.00000000E+00  0.00000000E+00  0.00000000E+00
  0.00000000E+00  0.00000000E+00  0.00000000E+00
  0.00000000E+00  0.00000000E+00  0.00000000E+00
  0.00000000E+00  0.00000000E+00  0.00000000E+00
  0.00000000E+00  0.00000000E+00  0.00000000E+00
  0.00000000E+00  0.00000000E+00  0.00000000E+00
  0.00000000E+00  0.00000000E+00  0.00000000E+00
  0.00000000E+00  0.00000000E+00  0.00000000E+00
  0.00000000E+00  0.00000000E+00  0.00000000E+00
  0.00000000E+00  0.00000000E+00  0.00000000E+00
  0.00000000E+00  0.00000000E+00  0.00000000E+00
  0.00000000E+00  0.00000000E+00  0.00000000E+00
  0.00000000E+00  0.00000000E+00  0.00000000E+00
  0.00000000E+00  0.00000000E+00  0.00000000E+00
  0.00000000E+00  0.00000000E+00  0.00000000E+00
  0.00000000E+00  0.00000000E+00  0.00000000E+00
  0.00000000E+00  0.00000000E+00  0.00000000E+00
  0.00000000E+00  0.00000000E+00  0.00000000E+00
  0.00000000E+00  0.00000000E+00  0.00000000E+00
  0.00000000E+00  0.00000000E+00  0.00000000E+00
  0.00000000E+00  0.00000000E+00  0.00000000E+00
  0.00000000E+00  0.00000000E+00  0.00000000E+00
  0.00000000E+00  0.00000000E+00  0.00000000E+00
  0.00000000E+00  0.00000000E+00  0.00000000E+00
  0.00000000E+00  0.00000000E+00  0.00000000E+00
  0.00000000E+00  0.00000000E+00  0.00000000E+00
  0.00000000E+00  0.00000000E+00  0.00000000E+00
  0.00000000E+00  0.00000000E+00  0.00000000E+00
  0.00000000E+00  0.00000000E+00  0.00000000E+00
  0.00000000E+00  0.00000000E+00  0.00000000E+00
  0.00000000E+00  0.00000000E+00  0.00000000E+00
  0.00000000E+00  0.00000000E+00  0.00000000E+00
  0.00000000E+00  0.00000000E+00  0.00000000E+00
  0.00000000E+00  0.00000000E+00  0.00000000E+00
  0.00000000E+00  0.00000000E+00  0.00000000E+00
  0.00000000E+00  0.00000000E+00  0.00000000E+00
  0.00000000E+00  0.00000000E+00  0.00000000E+00
  0.00000000E+00  0.00000000E+00  0.00000000E+00
  0.00000000E+00  0.00000000E+00  0.00000000E+00
  0.00000000E+00  0.00000000E+00  0.00000000E+00
  0.00000000E+00  0.00000000E+00  0.00000000E+00
  0.00000000E+00  0.00000000E+00  0.00000000E+00
  0.00000000E+00  0.00000000E+00  0.00000000E+00
