In Se                                   
   1.00000000000000     
    16.1247726200000017    0.0000000000000000    0.0000000000000000
     0.0000000000000000   16.1247726200000017    0.0000000000000000
     0.0000000000000000    0.0000000000000000    8.0623863100000008
   In   Se
    24    24
Direct
     0.1141230050088672    0.2409970992146018    0.0781443556697581
     0.5205377766816439    0.3669593207238909    0.3907227864064127
     0.5076243916058457    0.1488698954841074    0.4048396392915287
     0.5750031883675184    0.0330750604792290    0.9628769280070177
     0.7739189548359517    0.0195621083143995    0.2505483821163058
     0.8802324336148438    0.2565546918554073    0.0742257126758403
     0.6344157301987182    0.2413192224018053    0.9044603540761600
     0.6491987094720070    0.7518082403971214    0.0516184730058712
     0.8664864930954097    0.7901658048613198   -0.0461314391954497
     0.7453821646528308    0.4779049188084351    0.2416174231119808
     0.7003120627354301    0.5003225278640770    0.7385800981116809
     0.9805764245521524    0.8792231264773079    0.4522752486808385
     0.9532651257478917    0.6349784213013596    0.4171791790696598
     0.2677341950050767    0.4707194254867205    0.2822125778145418
     0.2755510049861239    0.4858657650603966    0.7491789989167623
     0.1180083316071534    0.7830493265917411    0.9401231751550895
     0.4846587854639275    0.6304201560746504    0.5325779240247893
     0.5287614126595230    0.8677664518958377    0.5703396463299580
     0.3409084107086971    0.2443962212241989    0.8930015377848023
     0.2653761315562806    0.9864234733064355    0.3157484756372808
     0.2707424049832801   -0.0011612270536910    0.8256391944488840
     0.0408582123535288    0.1069682500635052    0.5241453375637729
     0.4097744164601671    0.7264002069254842    0.0392803150278769
     0.0074772640929969    0.3712577826111456    0.5972995224158175
     0.5825727616845305    0.2576331483809604    0.5862120486142143
     0.7692669927934446    0.1395387474994355    0.0305104521591349
     0.7752105075977098    0.3789644408774108   -0.0153133935154069
     0.5322750320615364    0.7653147193494027    0.2744371443297972
     0.8313248557563339    0.4911897897928972    0.5070694541597166
     0.5908039169939258    0.4983697677363196    0.3010880214206724
     0.5502155072353759    0.7137025601753343    0.8137472252896412
     0.4814609469150238    0.2634600855900319    0.1487698669293292
     0.2984121826686703    0.8759835956393149    1.0727242188932418
     0.6059412340672911    0.0230206707328910    0.3024693951836934
     0.7816556918178701    0.6612253445320312    0.0440448191784717
     0.3204346320400852    0.5807148805170892    1.0254743057517690
     0.9505765213157350    0.7619085759927186    0.6681821360160242
     0.9852473410222844    0.8148471575615008    0.1754116434987326
     0.3745607755934181    0.4147154530375581    0.4971798574086843
     0.1627726641993089    0.5141685551123715    0.5100559371428860
     0.2196214534479167    0.3760310675080497    1.0148173088436987
     0.1945370573312915    0.0915819760096468    1.0992928995832554
     0.9868128013338148    0.2162900341547347    0.8469411736926558
    -0.0153321404019893    0.2646375926846332    0.3131109273574156
     0.3846515458796124    0.0449899591122880    0.4965846596306856
     0.1565195572243487    0.9292155196417694    0.5432535228238221
     0.8704422977113410    1.0061281556026502    0.4916191949941201
     0.7395416775498401    0.8962335521462645   -0.0247048269629672
 
 -0.12558070E-02 -0.43840742E-03 -0.17612555E-02
  0.32949282E-03  0.82073258E-03  0.25108521E-02
 -0.19771959E-02 -0.29125424E-02  0.27403672E-02
  0.13306936E-02  0.58508031E-03  0.49216833E-03
 -0.28602689E-03 -0.92548067E-03 -0.12439374E-02
  0.12689879E-02  0.22310918E-02  0.25489856E-02
 -0.95196046E-03  0.10308707E-02 -0.56596009E-03
 -0.11881585E-02  0.16722872E-02  0.12660984E-02
 -0.16209099E-02  0.33047286E-03  0.12360508E-02
 -0.24364811E-02 -0.22968099E-02 -0.49299146E-03
 -0.68725061E-03 -0.13165346E-02 -0.14955933E-02
  0.11424299E-02  0.11504317E-02 -0.16733919E-02
  0.13696376E-02  0.11004328E-02 -0.11446344E-02
  0.54003204E-03  0.15792215E-03  0.16662724E-02
 -0.64402473E-04 -0.18967756E-02  0.17991427E-03
 -0.57313149E-03 -0.40534987E-03 -0.17265468E-02
  0.22026993E-02 -0.22652368E-02  0.20000083E-03
 -0.26055553E-03  0.26474449E-02 -0.11737442E-02
  0.16602468E-02 -0.12910553E-02  0.15554814E-02
 -0.12658261E-02  0.17325719E-02  0.29321320E-02
  0.21037634E-02 -0.88582956E-03  0.37513023E-03
  0.38482340E-02  0.13550614E-02 -0.26352695E-02
 -0.84514134E-03  0.15348740E-03  0.13567612E-02
 -0.58281616E-03 -0.65054775E-03  0.82295388E-03
 -0.17632250E-02 -0.31062719E-02 -0.23426308E-02
 -0.10502817E-02  0.24996552E-02  0.98361637E-03
  0.18586889E-02 -0.37544160E-03  0.14502869E-02
  0.15262847E-02  0.33516872E-02 -0.38649594E-03
 -0.22032428E-02 -0.11702710E-04 -0.33760255E-02
 -0.12403029E-02  0.72445754E-03 -0.13034118E-02
 -0.18073157E-02  0.65332661E-04 -0.21807179E-02
 -0.11227359E-03  0.54673698E-03  0.47191841E-03
 -0.22814838E-02 -0.10685709E-02 -0.42687033E-02
 -0.24111656E-03 -0.19394358E-02 -0.12763354E-02
  0.82879639E-04 -0.73773366E-03 -0.27953023E-02
  0.28381915E-02 -0.21468709E-02  0.21732354E-02
  0.20410861E-03 -0.71491438E-03  0.14106353E-02
 -0.12124087E-03  0.38138659E-03 -0.30587143E-02
 -0.22756861E-03 -0.92725580E-03  0.28614858E-02
  0.49824033E-03  0.23567375E-03  0.29954221E-02
 -0.46355003E-03 -0.78439690E-03  0.20453119E-03
  0.34920839E-02  0.21802886E-02 -0.16512876E-03
  0.98311118E-04 -0.10292258E-02 -0.17529630E-03
  0.33341700E-04 -0.90727785E-03  0.14510698E-02
  0.13004223E-02  0.11216839E-02  0.11548875E-02
  0.52407173E-03 -0.24694046E-03 -0.16842908E-02
 -0.24283786E-02 -0.27511331E-03 -0.16552803E-03
 -0.11349271E-02  0.36247544E-02 -0.65958019E-03
 
           1
   1.00000000000000     
  0.70298454E+00  0.25700395E-02  0.22351409E-02  0.70058195E+00
  0.11404512E+00  0.24096991E+00  0.77925902E-01
  0.52055821E+00  0.36701022E+00  0.39103421E+00
  0.50750177E+00  0.14868927E+00  0.40517953E+00
  0.57508571E+00  0.33111345E-01  0.96293797E+00
  0.77390122E+00  0.19504713E-01  0.25039409E+00
  0.88031113E+00  0.25669306E+00  0.74541870E-01
  0.63435669E+00  0.24138315E+00  0.90439016E+00
  0.64912502E+00  0.75191195E+00  0.51775511E-01
  0.86638597E+00  0.79018630E+00  0.95402187E+00
  0.74523106E+00  0.47776248E+00  0.24155628E+00
  0.70026944E+00  0.50024088E+00  0.73839460E+00
  0.98064727E+00  0.87929447E+00  0.45206769E+00
  0.95335007E+00  0.63504667E+00  0.41703721E+00
  0.26776769E+00  0.47072922E+00  0.28241925E+00
  0.27554701E+00  0.48574813E+00  0.74920131E+00
  0.11797279E+00  0.78302419E+00  0.93990903E+00
  0.48479539E+00  0.63027967E+00  0.53260273E+00
  0.52874525E+00  0.86793064E+00  0.57019406E+00
  0.34101137E+00  0.24431615E+00  0.89319447E+00
  0.26529763E+00  0.98653092E+00  0.31611216E+00
  0.27087287E+00  0.99878384E+00  0.82568572E+00
  0.41096866E-01  0.10705229E+00  0.52381848E+00
  0.40972200E+00  0.72640973E+00  0.39448598E-01
  0.74411199E-02  0.37121744E+00  0.59740160E+00
  0.58246341E+00  0.25744051E+00  0.58592149E+00
  0.76920186E+00  0.13969377E+00  0.30632453E-01
  0.77532578E+00  0.37894116E+00  0.98486649E+00
  0.53236969E+00  0.76552258E+00  0.27438921E+00
  0.83118822E+00  0.49118906E+00  0.50665072E+00
  0.59072700E+00  0.49841470E+00  0.30092636E+00
  0.55010342E+00  0.71370661E+00  0.81347674E+00
  0.48145398E+00  0.26349399E+00  0.14882840E+00
  0.29827069E+00  0.87591733E+00  0.72194760E-01
  0.60592628E+00  0.22900394E-01  0.30231109E+00
  0.78166083E+00  0.66117959E+00  0.43698110E-01
  0.32061065E+00  0.58058174E+00  0.25743858E-01
  0.95058918E+00  0.76186424E+00  0.66835710E+00
  0.98523982E+00  0.81487081E+00  0.17503226E+00
  0.37454666E+00  0.41465795E+00  0.49753478E+00
  0.16280356E+00  0.51418317E+00  0.51042747E+00
  0.21959271E+00  0.37598242E+00  0.14842677E-01
  0.19475362E+00  0.91717190E-01  0.99272418E-01
  0.98681890E+00  0.21622621E+00  0.84691943E+00
  0.98466993E+00  0.26458133E+00  0.31329091E+00
  0.38473219E+00  0.45059522E-01  0.49672790E+00
  0.15655206E+00  0.92920021E+00  0.54304462E+00
  0.87029170E+00  0.61110941E-02  0.49159866E+00
  0.73947129E+00  0.89645835E+00  0.97521336E+00
  0.00000000E+00  0.00000000E+00  0.00000000E+00
  0.00000000E+00  0.00000000E+00  0.00000000E+00
  0.00000000E+00  0.00000000E+00  0.00000000E+00
  0.00000000E+00  0.00000000E+00  0.00000000E+00
  0.00000000E+00  0.00000000E+00  0.00000000E+00
  0.00000000E+00  0.00000000E+00  0.00000000E+00
  0.00000000E+00  0.00000000E+00  0.00000000E+00
  0.00000000E+00  0.00000000E+00  0.00000000E+00
  0.00000000E+00  0.00000000E+00  0.00000000E+00
  0.00000000E+00  0.00000000E+00  0.00000000E+00
  0.00000000E+00  0.00000000E+00  0.00000000E+00
  0.00000000E+00  0.00000000E+00  0.00000000E+00
  0.00000000E+00  0.00000000E+00  0.00000000E+00
  0.00000000E+00  0.00000000E+00  0.00000000E+00
  0.00000000E+00  0.00000000E+00  0.00000000E+00
  0.00000000E+00  0.00000000E+00  0.00000000E+00
  0.00000000E+00  0.00000000E+00  0.00000000E+00
  0.00000000E+00  0.00000000E+00  0.00000000E+00
  0.00000000E+00  0.00000000E+00  0.00000000E+00
  0.00000000E+00  0.00000000E+00  0.00000000E+00
  0.00000000E+00  0.00000000E+00  0.00000000E+00
  0.00000000E+00  0.00000000E+00  0.00000000E+00
  0.00000000E+00  0.00000000E+00  0.00000000E+00
  0.00000000E+00  0.00000000E+00  0.00000000E+00
  0.00000000E+00  0.00000000E+00  0.00000000E+00
  0.00000000E+00  0.00000000E+00  0.00000000E+00
  0.00000000E+00  0.00000000E+00  0.00000000E+00
  0.00000000E+00  0.00000000E+00  0.00000000E+00
  0.00000000E+00  0.00000000E+00  0.00000000E+00
  0.00000000E+00  0.00000000E+00  0.00000000E+00
  0.00000000E+00  0.00000000E+00  0.00000000E+00
  0.00000000E+00  0.00000000E+00  0.00000000E+00
  0.00000000E+00  0.00000000E+00  0.00000000E+00
  0.00000000E+00  0.00000000E+00  0.00000000E+00
  0.00000000E+00  0.00000000E+00  0.00000000E+00
  0.00000000E+00  0.00000000E+00  0.00000000E+00
  0.00000000E+00  0.00000000E+00  0.00000000E+00
  0.00000000E+00  0.00000000E+00  0.00000000E+00
  0.00000000E+00  0.00000000E+00  0.00000000E+00
  0.00000000E+00  0.00000000E+00  0.00000000E+00
  0.00000000E+00  0.00000000E+00  0.00000000E+00
  0.00000000E+00  0.00000000E+00  0.00000000E+00
  0.00000000E+00  0.00000000E+00  0.00000000E+00
  0.00000000E+00  0.00000000E+00  0.00000000E+00
  0.00000000E+00  0.00000000E+00  0.00000000E+00
  0.00000000E+00  0.00000000E+00  0.00000000E+00
  0.00000000E+00  0.00000000E+00  0.00000000E+00
  0.00000000E+00  0.00000000E+00  0.00000000E+00
  0.00000000E+00  0.00000000E+00  0.00000000E+00
  0.00000000E+00  0.00000000E+00  0.00000000E+00
  0.00000000E+00  0.00000000E+00  0.00000000E+00
  0.00000000E+00  0.00000000E+00  0.00000000E+00
  0.00000000E+00  0.00000000E+00  0.00000000E+00
  0.00000000E+00  0.00000000E+00  0.00000000E+00
  0.00000000E+00  0.00000000E+00  0.00000000E+00
  0.00000000E+00  0.00000000E+00  0.00000000E+00
  0.00000000E+00  0.00000000E+00  0.00000000E+00
  0.00000000E+00  0.00000000E+00  0.00000000E+00
  0.00000000E+00  0.00000000E+00  0.00000000E+00
  0.00000000E+00  0.00000000E+00  0.00000000E+00
  0.00000000E+00  0.00000000E+00  0.00000000E+00
  0.00000000E+00  0.00000000E+00  0.00000000E+00
  0.00000000E+00  0.00000000E+00  0.00000000E+00
  0.00000000E+00  0.00000000E+00  0.00000000E+00
  0.00000000E+00  0.00000000E+00  0.00000000E+00
  0.00000000E+00  0.00000000E+00  0.00000000E+00
  0.00000000E+00  0.00000000E+00  0.00000000E+00
  0.00000000E+00  0.00000000E+00  0.00000000E+00
  0.00000000E+00  0.00000000E+00  0.00000000E+00
  0.00000000E+00  0.00000000E+00  0.00000000E+00
  0.00000000E+00  0.00000000E+00  0.00000000E+00
  0.00000000E+00  0.00000000E+00  0.00000000E+00
  0.00000000E+00  0.00000000E+00  0.00000000E+00
  0.00000000E+00  0.00000000E+00  0.00000000E+00
  0.00000000E+00  0.00000000E+00  0.00000000E+00
  0.00000000E+00  0.00000000E+00  0.00000000E+00
  0.00000000E+00  0.00000000E+00  0.00000000E+00
  0.00000000E+00  0.00000000E+00  0.00000000E+00
  0.00000000E+00  0.00000000E+00  0.00000000E+00
  0.00000000E+00  0.00000000E+00  0.00000000E+00
  0.00000000E+00  0.00000000E+00  0.00000000E+00
  0.00000000E+00  0.00000000E+00  0.00000000E+00
  0.00000000E+00  0.00000000E+00  0.00000000E+00
  0.00000000E+00  0.00000000E+00  0.00000000E+00
  0.00000000E+00  0.00000000E+00  0.00000000E+00
  0.00000000E+00  0.00000000E+00  0.00000000E+00
  0.00000000E+00  0.00000000E+00  0.00000000E+00
  0.00000000E+00  0.00000000E+00  0.00000000E+00
  0.00000000E+00  0.00000000E+00  0.00000000E+00
  0.00000000E+00  0.00000000E+00  0.00000000E+00
  0.00000000E+00  0.00000000E+00  0.00000000E+00
  0.00000000E+00  0.00000000E+00  0.00000000E+00
  0.00000000E+00  0.00000000E+00  0.00000000E+00
  0.00000000E+00  0.00000000E+00  0.00000000E+00
  0.00000000E+00  0.00000000E+00  0.00000000E+00
  0.00000000E+00  0.00000000E+00  0.00000000E+00
