Mg Si
 1.0000000000000000
    30.0850480000000005    4.2564419999999998    2.6094439999999999
     0.0000000000000000    7.1638950000000001    0.3428080000000000
     0.0000000000000000    0.0000000000000000    4.0660220000000002
 Mg  Si 
  24  20
Direct
  0.3522735001120822  0.9204590001159884  0.4220059999335387
  0.1540954998642515  0.0639809994935445  0.6700689996212134
  0.1093149999295331  0.7212810004990217  0.2194470005584847
  0.3865660001606113  0.6021440000369028  0.5113450000792527
  0.3336099998909757  0.3761589993773019  0.5982220000742638
  0.1574515001604784  0.7089830004144301  0.6895079990243953
  0.1090070000885489  0.1412820004381830  0.1968619986942333
  0.3737115001445236  0.0865710001196059  0.8558490010157033
  0.2759734998594650  0.8912419995423132  0.5836280003535683
  0.2245815000860227  0.1734799994431589  0.6557309995962682
  0.0665814998865882  0.9499949995721225  0.7388570004777696
  0.0179424998756858  0.2574379998512173  0.2831120012389000
  0.8522735001120822  0.9204590001159884  0.4220059999335388
  0.6540954998642513  0.0639809994935445  0.6700689996212135
  0.6093149999295329  0.7212810004990217  0.2194470005584847
  0.8865660001606114  0.6021440000369027  0.5113450000792527
  0.8336099998909755  0.3761589993773018  0.5982220000742637
  0.6574515001604783  0.7089830004144300  0.6895079990243955
  0.6090070000885488  0.1412820004381829  0.1968619986942334
  0.8737115001445234  0.0865710001196060  0.8558490010157035
  0.7759734998594650  0.8912419995423131  0.5836280003535683
  0.7245815000860227  0.1734799994431589  0.6557309995962681
  0.5665814998865882  0.9499949995721224  0.7388570004777696
  0.5179424998756857  0.2574379998512173  0.2831120012389001
  0.4169204998443080  0.2577959997741024  0.2953829989394325
  0.0193060001100879  0.7048670004626557  0.2792789997580262
  0.2118580000271231  0.8712249998985959  0.1441830007835634
  0.2863585000761840  0.2136289997576356  0.1269810000974630
  0.4610935000003988  0.5332789998557074  0.8357119994929746
  0.0850899998564071  0.4474619994892716  0.7363590008351600
  0.1753829998875188  0.3936770001783624  0.1801779990773216
  0.3198175000418812  0.6523479993057877  0.0500230004841821
  0.2451940000228685  0.5382380004389600  0.6308069989168397
  0.4660599999707496  0.9907650002693371  0.7963869996827356
  0.9169204998443078  0.2577959997741026  0.2953829989394326
  0.5193060001100878  0.7048670004626557  0.2792789997580263
  0.7118580000271231  0.8712249998985959  0.1441830007835634
  0.7863585000761840  0.2136289997576356  0.1269810000974631
  0.9610935000003986  0.5332789998557074  0.8357119994929748
  0.5850899998564071  0.4474619994892715  0.7363590008351601
  0.6753829998875188  0.3936770001783624  0.1801779990773216
  0.8198175000418810  0.6523479993057877  0.0500230004841822
  0.7451940000228685  0.5382380004389600  0.6308069989168398
  0.9660599999707496  0.9907650002693373  0.7963869996827356
