In Se
 1.0000000000000000
    16.1247726200000017    0.0000000000000000    0.0000000000000000
     0.0000000000000000   16.1247726200000017    0.0000000000000000
     0.0000000000000000    0.0000000000000000    8.0623863100000008
 In  Se 
  24  24
Direct
  0.1250000001550409  0.2500000003100818  0.0000000000000000
  0.5000000000000000  0.3749999998449591  0.5000000006201637
  0.5000000000000000  0.1250000001550409  0.5000000006201637
  0.7500000003100818  0.0000000000000000  0.7499999996899182
  0.7500000003100818  0.0000000000000000  0.2500000003100818
  0.8749999998449589  0.2500000003100818  0.0000000000000000
  0.6250000001550409  0.2500000003100818  0.0000000000000000
  0.6250000001550409  0.7500000003100818  0.0000000000000000
  0.8749999998449589  0.7500000003100818  0.0000000000000000
  0.7500000003100818  0.5000000000000000  0.2500000003100818
  0.7500000003100818  0.5000000000000000  0.7499999996899182
  0.0000000000000000  0.8749999998449589  0.5000000006201637
  0.0000000000000000  0.6250000001550409  0.5000000006201637
  0.2500000003100818  0.5000000000000000  0.2500000003100818
  0.2500000003100818  0.5000000000000000  0.7499999996899182
  0.1250000001550409  0.7500000003100818  0.0000000000000000
  0.5000000000000000  0.6250000001550409  0.5000000006201637
  0.5000000000000000  0.8749999998449589  0.5000000006201637
  0.3749999998449591  0.2500000003100818  0.0000000000000000
  0.2500000003100818  0.0000000000000000  0.2500000003100818
  0.2500000003100818  0.0000000000000000  0.7499999996899182
  0.0000000000000000  0.1250000001550409  0.5000000006201637
  0.3749999998449591  0.7500000003100818  0.0000000000000000
  0.0000000000000000  0.3749999998449591  0.5000000006201637
  0.5000000000000000  0.2500000003100818  0.7499999996899182
  0.7500000003100818  0.1250000001550409  0.0000000000000000
  0.7500000003100818  0.3749999998449591  0.0000000000000000
  0.5000000000000000  0.7500000003100818  0.2500000003100818
  0.8749999998449589  0.5000000000000000  0.5000000006201637
  0.6250000001550409  0.5000000000000000  0.5000000006201637
  0.5000000000000000  0.7500000003100818  0.7499999996899182
  0.5000000000000000  0.2500000003100818  0.2500000003100818
  0.2500000003100818  0.8749999998449589  0.0000000000000000
  0.6250000001550409  0.0000000000000000  0.5000000006201637
  0.7500000003100818  0.6250000001550409  0.0000000000000000
  0.2500000003100818  0.6250000001550409  0.0000000000000000
  0.0000000000000000  0.7500000003100818  0.7499999996899182
  0.0000000000000000  0.7500000003100818  0.2500000003100818
  0.3749999998449591  0.5000000000000000  0.5000000006201637
  0.1250000001550409  0.5000000000000000  0.5000000006201637
  0.2500000003100818  0.3749999998449591  0.0000000000000000
  0.2500000003100818  0.1250000001550409  0.0000000000000000
  0.0000000000000000  0.2500000003100818  0.7499999996899182
  0.0000000000000000  0.2500000003100818  0.2500000003100818
  0.3749999998449591  0.0000000000000000  0.5000000006201637
  0.1250000001550409  0.0000000000000000  0.5000000006201637
  0.8749999998449589  0.0000000000000000  0.5000000006201637
  0.7500000003100818  0.8749999998449589  0.0000000000000000
