In Se                                   
   1.00000000000000     
    16.1247726200000017    0.0000000000000000    0.0000000000000000
     0.0000000000000000   16.1247726200000017    0.0000000000000000
     0.0000000000000000    0.0000000000000000    8.0623863100000008
   In   Se
    24    24
Direct
     0.1120322779177923    0.2285995498099845    0.1077452852920603
     0.5041571701448611    0.3359581029730550    0.4151453765329417
     0.4803989371934756    0.1321783136124018    0.4250001416479371
     0.5606180938068175    0.0368662918234529    0.9485585700812015
     0.7433809200501423    0.0251604040569300    0.1935221871185371
     0.8840906644639980    0.2357751883949803    0.1195689441483571
     0.6053635711011730    0.3019085891999056    0.9804524651848099
     0.6516503804568619    0.7688617575305772    0.0432824314646803
     0.8629139041304851    0.8048591839205187    0.9000355427978481
     0.7775022020449249    0.4321235506882518    0.3352130472123472
     0.7488189746312409    0.5252756348276613    0.8139183607693342
     0.9666390979831634    0.9160986314753445    0.3748881733462396
     0.9956790198046490    0.6460039662700626    0.3474545660756302
     0.2581207228190880    0.4718631391465616    0.2160238562191703
     0.2676759296922076    0.4827730824759591    0.7207071592585371
     0.0982903102141157    0.7928381840450938    0.7779332229549502
     0.5263910650952937    0.6143667182913950    0.5758539998592261
     0.4888319832441927    0.8874312284416539    0.4888292454563399
     0.3502357635656581    0.2050751701060778    0.9055575291257379
     0.2596327552090816    0.9770264467283049    0.3037774754095526
     0.2492661946112655    0.9543242333592489    0.8660353295293713
     0.0740657889606852    0.1373958710058729    0.6080772063398532
     0.4210351684472790    0.7090320109247314    0.0628668897111276
     0.0341844217841039    0.3978222511283586    0.6021775129335206
     0.5433100862281633    0.2261260522543521    0.6508025658014878
     0.7363764616459521    0.1657895344569796    0.0775541476304310
     0.8256858852567535    0.3924125529402974    1.0402318231719467
     0.5439694940794857    0.7287588158219128    0.2816136324840932
     0.8778850165673385    0.4964544165806812    0.5461019302110910
     0.6126330224746056    0.4576562925969823    0.3721686021458057
     0.5276688164512396    0.7637175516497891    0.8336125194477911
     0.4664217133126374    0.2358984552686614    0.1809092146917062
     0.3261112464113951    0.8619073414344780    0.1132328546924867
     0.5886408862030068    0.0122810323297226    0.3165054952068122
     0.7883575479884043    0.6710299962972743    0.0281022833857881
     0.3231402145778023    0.5780168650233453   -0.0086184289462388
     0.9404482296929950    0.7890799364611273    0.5933376607220516
     0.9933906413641109    0.8652909832973347    0.0800982327573030
     0.3704328754837217    0.4226148216874447    0.4585470603961755
     0.1592141128189942    0.5259472596251916    0.4509927087814361
     0.2111112583729494    0.3490322171440305    0.0090849454641031
     0.2239374141639168    0.0976455745956773    0.0919429589226046
     0.9973624607247547    0.1744993195597854    0.9158822772011924
     0.9954071815763745    0.2518274371299200    0.3588066935067798
     0.3544759436435639    0.0301360393199132    0.5260391891209840
     0.1247519303475655    0.9423540616389526    0.4965413284297391
     0.8597015472051187    0.0229620628605792    0.4173559194922660
     0.7244800219035959    0.9100345046293490    0.9762978426470877
 
  0.10962327E-02  0.18896254E-03 -0.12869269E-03
 -0.13103908E-02  0.18506547E-02 -0.74933170E-03
 -0.81276770E-03 -0.11041841E-02  0.38479271E-03
 -0.18269666E-02 -0.74996778E-03  0.28051737E-03
  0.53282929E-03 -0.24818864E-02 -0.25689051E-03
 -0.24247782E-02 -0.19493997E-02  0.20790434E-03
  0.34781216E-02 -0.20930572E-02 -0.40799700E-03
  0.78153762E-03  0.35277083E-03 -0.17072054E-02
 -0.62475147E-03 -0.30978388E-03  0.77328553E-03
  0.38102636E-03 -0.85583355E-03  0.16917455E-02
  0.11440726E-02 -0.75174266E-04 -0.11972963E-02
 -0.46854526E-03 -0.80708646E-03  0.31531640E-03
 -0.21457886E-02 -0.80662387E-03  0.23388541E-02
 -0.83895399E-04 -0.19528584E-02 -0.86237767E-03
  0.12362420E-02  0.13377836E-02 -0.11560045E-02
 -0.15145695E-02  0.42492095E-02 -0.64766873E-03
  0.29544251E-02  0.96707265E-03 -0.19721599E-02
 -0.11171672E-02 -0.35340580E-02 -0.66523776E-03
 -0.94925945E-03  0.14749387E-02 -0.10827567E-02
  0.25523711E-02  0.68120008E-03  0.21862956E-02
 -0.15317297E-02  0.65973543E-03  0.11667584E-02
  0.25241605E-02 -0.16412869E-03 -0.11623441E-02
  0.25369287E-03  0.10706651E-02 -0.14777697E-02
  0.26748161E-03 -0.39970284E-03 -0.12388149E-02
 -0.10606696E-02  0.22739793E-02 -0.24331425E-02
 -0.76013845E-03  0.29080883E-02  0.16749066E-02
 -0.10917711E-02  0.16127149E-02 -0.18255823E-02
 -0.72729052E-03  0.10719799E-02 -0.31212095E-04
 -0.10764693E-02 -0.18579282E-03  0.23906473E-03
  0.10611884E-02  0.18538688E-02  0.49136546E-02
 -0.11595272E-02 -0.46890515E-03 -0.95610287E-03
 -0.19269563E-02 -0.33789456E-02  0.75870883E-03
  0.26995115E-02  0.15937419E-02  0.33162513E-02
  0.25819423E-02  0.11212304E-02 -0.86848405E-04
 -0.69573861E-03  0.23879933E-02  0.98424436E-03
 -0.16201329E-02  0.27642382E-02 -0.69454380E-03
  0.11049583E-02  0.58542076E-03  0.12690164E-02
  0.14822234E-02  0.29687618E-02  0.37306011E-02
 -0.26597765E-02 -0.10429327E-02 -0.93332897E-03
 -0.12105004E-03 -0.47566781E-03 -0.80752515E-03
  0.67104639E-03 -0.16705094E-02  0.27256388E-02
 -0.15062310E-02 -0.13770907E-02  0.15079530E-03
  0.14079161E-02 -0.20902274E-02  0.32080933E-04
  0.29911016E-03 -0.62090536E-03 -0.14515789E-02
  0.90959920E-03  0.55103855E-03  0.15306914E-02
 -0.64104139E-03 -0.25126779E-02 -0.10788782E-02
 -0.10387011E-02 -0.44981063E-03  0.15498643E-03
  0.39026766E-03 -0.94751208E-03 -0.33773402E-02
 
           1
   1.00000000000000     
  0.91468927E+00  0.57256311E-02  0.56928599E-02  0.90898003E+00
  0.11210026E+00  0.22861127E+00  0.10772932E+00
  0.50407590E+00  0.33607287E+00  0.41505243E+00
  0.48034853E+00  0.13210984E+00  0.42504787E+00
  0.56050479E+00  0.36819782E-01  0.94859336E+00
  0.74341396E+00  0.25006486E-01  0.19349032E+00
  0.88394029E+00  0.23565429E+00  0.11959473E+00
  0.60557927E+00  0.30177879E+00  0.98040186E+00
  0.65169885E+00  0.76888364E+00  0.43070682E-01
  0.86287516E+00  0.80483997E+00  0.90013146E+00
  0.77752583E+00  0.43207047E+00  0.33542288E+00
  0.74888993E+00  0.52527097E+00  0.81376986E+00
  0.96661004E+00  0.91604858E+00  0.37492728E+00
  0.99554595E+00  0.64595394E+00  0.34774466E+00
  0.25811552E+00  0.47174203E+00  0.21591689E+00
  0.26775260E+00  0.48285605E+00  0.72056378E+00
  0.98196382E-01  0.79310170E+00  0.77785289E+00
  0.52657429E+00  0.61442669E+00  0.57560939E+00
  0.48876270E+00  0.88721206E+00  0.48874673E+00
  0.35017689E+00  0.20516664E+00  0.90542323E+00
  0.25979104E+00  0.97706869E+00  0.30404865E+00
  0.24917120E+00  0.95436515E+00  0.86618005E+00
  0.74222328E-01  0.13738569E+00  0.60793304E+00
  0.42105090E+00  0.70909841E+00  0.62683598E-01
  0.34201010E-01  0.39779746E+00  0.60202386E+00
  0.54324431E+00  0.22626708E+00  0.65050078E+00
  0.73632932E+00  0.16596988E+00  0.77761891E-01
  0.82561818E+00  0.39251257E+00  0.40005391E-01
  0.54392439E+00  0.72882530E+00  0.28160976E+00
  0.87781826E+00  0.49644289E+00  0.54613158E+00
  0.61269883E+00  0.45777126E+00  0.37277806E+00
  0.52759691E+00  0.76368847E+00  0.83349393E+00
  0.46630221E+00  0.23568891E+00  0.18100332E+00
  0.32627866E+00  0.86200618E+00  0.11364418E+00
  0.58880101E+00  0.12350567E-01  0.31649472E+00
  0.78831440E+00  0.67117809E+00  0.28224362E-01
  0.32303974E+00  0.57818829E+00  0.99129542E+00
  0.94051676E+00  0.78911624E+00  0.59349506E+00
  0.99348256E+00  0.86547510E+00  0.80560949E-01
  0.37026793E+00  0.42255014E+00  0.45843130E+00
  0.15920661E+00  0.52591776E+00  0.45089255E+00
  0.21115287E+00  0.34892862E+00  0.94230140E-02
  0.22384400E+00  0.97560172E-01  0.91961662E-01
  0.99744977E+00  0.17436969E+00  0.91588626E+00
  0.99542573E+00  0.25178893E+00  0.35862665E+00
  0.35453235E+00  0.30170213E-01  0.52622904E+00
  0.12471218E+00  0.94219823E+00  0.49640751E+00
  0.85963713E+00  0.22934167E-01  0.41737514E+00
  0.72450422E+00  0.90997574E+00  0.97587894E+00
  0.00000000E+00  0.00000000E+00  0.00000000E+00
  0.00000000E+00  0.00000000E+00  0.00000000E+00
  0.00000000E+00  0.00000000E+00  0.00000000E+00
  0.00000000E+00  0.00000000E+00  0.00000000E+00
  0.00000000E+00  0.00000000E+00  0.00000000E+00
  0.00000000E+00  0.00000000E+00  0.00000000E+00
  0.00000000E+00  0.00000000E+00  0.00000000E+00
  0.00000000E+00  0.00000000E+00  0.00000000E+00
  0.00000000E+00  0.00000000E+00  0.00000000E+00
  0.00000000E+00  0.00000000E+00  0.00000000E+00
  0.00000000E+00  0.00000000E+00  0.00000000E+00
  0.00000000E+00  0.00000000E+00  0.00000000E+00
  0.00000000E+00  0.00000000E+00  0.00000000E+00
  0.00000000E+00  0.00000000E+00  0.00000000E+00
  0.00000000E+00  0.00000000E+00  0.00000000E+00
  0.00000000E+00  0.00000000E+00  0.00000000E+00
  0.00000000E+00  0.00000000E+00  0.00000000E+00
  0.00000000E+00  0.00000000E+00  0.00000000E+00
  0.00000000E+00  0.00000000E+00  0.00000000E+00
  0.00000000E+00  0.00000000E+00  0.00000000E+00
  0.00000000E+00  0.00000000E+00  0.00000000E+00
  0.00000000E+00  0.00000000E+00  0.00000000E+00
  0.00000000E+00  0.00000000E+00  0.00000000E+00
  0.00000000E+00  0.00000000E+00  0.00000000E+00
  0.00000000E+00  0.00000000E+00  0.00000000E+00
  0.00000000E+00  0.00000000E+00  0.00000000E+00
  0.00000000E+00  0.00000000E+00  0.00000000E+00
  0.00000000E+00  0.00000000E+00  0.00000000E+00
  0.00000000E+00  0.00000000E+00  0.00000000E+00
  0.00000000E+00  0.00000000E+00  0.00000000E+00
  0.00000000E+00  0.00000000E+00  0.00000000E+00
  0.00000000E+00  0.00000000E+00  0.00000000E+00
  0.00000000E+00  0.00000000E+00  0.00000000E+00
  0.00000000E+00  0.00000000E+00  0.00000000E+00
  0.00000000E+00  0.00000000E+00  0.00000000E+00
  0.00000000E+00  0.00000000E+00  0.00000000E+00
  0.00000000E+00  0.00000000E+00  0.00000000E+00
  0.00000000E+00  0.00000000E+00  0.00000000E+00
  0.00000000E+00  0.00000000E+00  0.00000000E+00
  0.00000000E+00  0.00000000E+00  0.00000000E+00
  0.00000000E+00  0.00000000E+00  0.00000000E+00
  0.00000000E+00  0.00000000E+00  0.00000000E+00
  0.00000000E+00  0.00000000E+00  0.00000000E+00
  0.00000000E+00  0.00000000E+00  0.00000000E+00
  0.00000000E+00  0.00000000E+00  0.00000000E+00
  0.00000000E+00  0.00000000E+00  0.00000000E+00
  0.00000000E+00  0.00000000E+00  0.00000000E+00
  0.00000000E+00  0.00000000E+00  0.00000000E+00
  0.00000000E+00  0.00000000E+00  0.00000000E+00
  0.00000000E+00  0.00000000E+00  0.00000000E+00
  0.00000000E+00  0.00000000E+00  0.00000000E+00
  0.00000000E+00  0.00000000E+00  0.00000000E+00
  0.00000000E+00  0.00000000E+00  0.00000000E+00
  0.00000000E+00  0.00000000E+00  0.00000000E+00
  0.00000000E+00  0.00000000E+00  0.00000000E+00
  0.00000000E+00  0.00000000E+00  0.00000000E+00
  0.00000000E+00  0.00000000E+00  0.00000000E+00
  0.00000000E+00  0.00000000E+00  0.00000000E+00
  0.00000000E+00  0.00000000E+00  0.00000000E+00
  0.00000000E+00  0.00000000E+00  0.00000000E+00
  0.00000000E+00  0.00000000E+00  0.00000000E+00
  0.00000000E+00  0.00000000E+00  0.00000000E+00
  0.00000000E+00  0.00000000E+00  0.00000000E+00
  0.00000000E+00  0.00000000E+00  0.00000000E+00
  0.00000000E+00  0.00000000E+00  0.00000000E+00
  0.00000000E+00  0.00000000E+00  0.00000000E+00
  0.00000000E+00  0.00000000E+00  0.00000000E+00
  0.00000000E+00  0.00000000E+00  0.00000000E+00
  0.00000000E+00  0.00000000E+00  0.00000000E+00
  0.00000000E+00  0.00000000E+00  0.00000000E+00
  0.00000000E+00  0.00000000E+00  0.00000000E+00
  0.00000000E+00  0.00000000E+00  0.00000000E+00
  0.00000000E+00  0.00000000E+00  0.00000000E+00
  0.00000000E+00  0.00000000E+00  0.00000000E+00
  0.00000000E+00  0.00000000E+00  0.00000000E+00
  0.00000000E+00  0.00000000E+00  0.00000000E+00
  0.00000000E+00  0.00000000E+00  0.00000000E+00
  0.00000000E+00  0.00000000E+00  0.00000000E+00
  0.00000000E+00  0.00000000E+00  0.00000000E+00
  0.00000000E+00  0.00000000E+00  0.00000000E+00
  0.00000000E+00  0.00000000E+00  0.00000000E+00
  0.00000000E+00  0.00000000E+00  0.00000000E+00
  0.00000000E+00  0.00000000E+00  0.00000000E+00
  0.00000000E+00  0.00000000E+00  0.00000000E+00
  0.00000000E+00  0.00000000E+00  0.00000000E+00
  0.00000000E+00  0.00000000E+00  0.00000000E+00
  0.00000000E+00  0.00000000E+00  0.00000000E+00
  0.00000000E+00  0.00000000E+00  0.00000000E+00
  0.00000000E+00  0.00000000E+00  0.00000000E+00
  0.00000000E+00  0.00000000E+00  0.00000000E+00
  0.00000000E+00  0.00000000E+00  0.00000000E+00
  0.00000000E+00  0.00000000E+00  0.00000000E+00
  0.00000000E+00  0.00000000E+00  0.00000000E+00
  0.00000000E+00  0.00000000E+00  0.00000000E+00
  0.00000000E+00  0.00000000E+00  0.00000000E+00
  0.00000000E+00  0.00000000E+00  0.00000000E+00
