Hg In Sn
 1.0000000000000000
    16.5070906599999994   -1.5386889399999999    0.0002284600000000
    -1.6632822000000000   13.6146955399999996   -6.0702155400000004
     0.0000565100000000   -0.0001140800000000    6.0700903100000003
 Hg  In  Sn 
  16  20  12
Direct
  0.0875419601848076  0.5811837197603399  0.5811835503725804
  0.5767562301855107  0.8404855298716977  0.3404848895640181
  0.9232437698144893  0.6595144701283021  0.6595151104359821
  0.5875419601848076  0.0811837197603400  0.5811835503725804
  0.7499999997310430  0.0000000003368495 -0.0000000004868444
  0.5767562301855108  0.3404855298716978  0.3404848895640182
  0.9232437698144893  0.1595144701283022  0.6595151104359820
  0.7499999997310430  0.5000000003368494 -0.0000000004868443
  0.2499999997310431  0.5000000003368494 -0.0000000004868443
  0.0767562301855107  0.8404855298716977  0.3404848895640180
  0.4232437698144893  0.6595144701283021  0.6595151104359820
  0.5875419601848076  0.5811837197603399  0.5811835503725804
  0.2499999997310431  0.0000000003368495 -0.0000000004868444
  0.0767562301855107  0.3404855298716978  0.3404848895640181
  0.4232437698144893  0.1595144701283022  0.6595151104359820
  0.0875419601848077  0.0811837197603400  0.5811835503725804
  0.4079011999190702  0.6782713249047652  0.1782710606269649
  0.0814519101605634  0.0830025452406765  0.0830048295403553
  0.4185480898394366  0.4169974547593235  0.9169951704596450
  0.7622713850282586  0.7386023601920322  0.7386020202717097
  0.5920988000809299  0.8217286750952345  0.8217289393730351
  0.9185480898394367  0.9169974547593234  0.9169951704596450
  0.5814519101605633  0.5830025452406765  0.0830048295403553
  0.9079011999190703  0.6782713249047652  0.1782710606269648
  0.0920988000809298  0.3217286750952347  0.8217289393730351
  0.2622713850282586  0.2386023601920323  0.7386020202717097
  0.7622713850282586  0.2386023601920323  0.7386020202717096
  0.4079011999190702  0.1782713249047652  0.1782710606269649
  0.9185480898394366  0.4169974547593234  0.9169951704596447
  0.5814519101605634  0.0830025452406765  0.0830048295403553
  0.0814519101605634  0.5830025452406765  0.0830048295403553
  0.4185480898394366  0.9169974547593234  0.9169951704596447
  0.9079011999190703  0.1782713249047652  0.1782710606269648
  0.0920988000809298  0.8217286750952345  0.8217289393730351
  0.5920988000809299  0.3217286750952347  0.8217289393730351
  0.2622713850282586  0.7386023601920322  0.7386020202717097
  0.9124580398151925  0.9188162802396600  0.4188164496274198
  0.7377286149717414  0.7613976398079676  0.2613979797282904
  0.7500000000374301  0.5000000003714835  0.5000000003714898
  0.2377286149717415  0.7613976398079676  0.2613979797282904
  0.4124580398151924  0.9188162802396600  0.4188164496274199
  0.4124580398151924  0.4188162802396600  0.4188164496274198
  0.2500000000374301  0.0000000003714836  0.5000000003714898
  0.2377286149717415  0.2613976398079677  0.2613979797282904
  0.9124580398151924  0.4188162802396600  0.4188164496274198
  0.7377286149717415  0.2613976398079677  0.2613979797282904
  0.2500000000374301  0.5000000003714835  0.5000000003714898
  0.7500000000374301  0.0000000003714836  0.5000000003714898
