Hg In Sn                                
   1.00000000000000     
    16.5070906599999994   -1.5386889399999999    0.0002284600000000
    -1.6632822000000000   13.6146955399999996   -6.0702155400000004
     0.0000565100000000   -0.0001140800000000    6.0700903100000003
   Hg   In   Sn
    16    20    12
Direct
     0.0633293279093426    0.5277291571167848    0.5760808613612040
     0.6111057313073274    0.9519652954901408    0.4465365007898541
    -0.0170412549701080    0.6502348236061114    0.3529719021350954
     0.6212618356491071    0.1456214767580518    0.7937823863816865
     0.7545810207016922    0.9080226676453094    0.2265729811276884
     0.4854422048182380    0.2169198113439228    0.8757356098777476
     1.0006059512071375    0.1603651017862884    1.0420038355342014
     0.6761664715913398    0.4231803739961713    1.1546812048823429
     0.2337890242665691    0.5619939141016210   -0.1210800227929484
     0.0424005284037734    0.7303253273787852   -0.0433013978564465
     0.4959886589346175    0.8152455698385049    0.7502226248092339
     0.5244595365467761    0.4771127746552111    0.1522427432800429
     0.1962710138065697    0.8661406935132164   -0.0106479484109482
     0.1408632435899132    0.3694877440653516    0.6151001178705514
     0.3622799854607952    0.2525506049882382    0.6222784479547692
     0.1393045087851158    0.0288419735037455    0.3109156907850940
     0.4471924055137899    0.9463366967805331    0.5634813908605328
     0.9586520781180489    0.9637212951873112    0.6530602339512704
     0.4271761410602437    0.6267483506258973    0.1122019671983636
     0.7592137859844826    0.6497280807166701    0.4029747397038133
     0.6420070593990977    0.7461072042662703    0.7825643586507239
     0.8906842043779590    0.7739341276490319    0.2609275018912550
     0.6258881103341104    0.7306864067405673    0.2584042102900880
     0.8990403317659762    0.7877769343757651    0.7828597580389701
     0.1566989733484104    0.2048280941025800    0.7618062483305585
     0.3351011008947171    0.4319317165067382    0.5831647783845388
     0.8203266728274839    0.1013641849459801    1.1780449495586374
     0.3378672992321058    0.4139888287718402    0.0291485012127280
     0.9469847925268173    0.3283565990258434    0.9642543986622086
     0.3385171098877508    0.2544407552942879    0.1397571999075818
     0.8630791811358753    0.4999838327797498   -0.0517541930371498
     0.3446685666705840    0.0382147651294714    0.9530989932024257
     0.8362426961365471    0.0949264074677158    0.6559464573245164
     0.1586966906633767    0.6808087909312959    0.2993877474861129
     0.7715343844424872    0.2733866544256486    1.1267048395852031
     0.3217454414984131    0.7898657756284720    0.7090308314209658
     0.9486681393046442    0.9836365519345566    0.1977930498295443
     0.7604842144639921    0.6431395601172550   -0.1165187627910700
     0.8620586395004306    0.5096271536396660    0.4543107622201502
     0.3297904503296576    0.7908584711061519    0.2031643662975831
     0.3335461409600751    0.0384461171672244    0.4282117996961859
     0.4519485493061697    0.6088746066907973    0.6118350482257667
     0.1956541538587145    0.9035402281419617    0.5535691116567651
     0.1613408682533542    0.2040200610670752    0.2294492409800541
     0.9319449199526069    0.3192036429148450    0.4488425582495881
     0.7713465088670053    0.2678677943158262    0.6109076877079684
     0.2763664817697282    0.5682159887173847    0.4019351265991057
     0.7725820706960909    0.9170866967103468    0.7522199155492734
 
 -0.15344123E-02  0.61606837E-04 -0.88064624E-03
 -0.80213615E-03  0.15699505E-03  0.14267220E-02
  0.57884819E-03  0.53555014E-03  0.44785615E-03
 -0.70353075E-03  0.12167019E-02  0.56211860E-03
 -0.23323721E-02 -0.10131081E-02 -0.58300002E-03
 -0.71406812E-03 -0.92915278E-03 -0.10316840E-02
 -0.33538330E-03  0.16833179E-02 -0.64338884E-03
  0.15609385E-02  0.58663265E-03 -0.20529008E-02
  0.15887902E-03  0.13419991E-03  0.94192039E-03
  0.29858387E-03 -0.20582209E-03 -0.73226494E-03
  0.13612914E-02 -0.12234586E-03  0.14016169E-03
 -0.12005711E-03 -0.23459612E-03  0.82047651E-03
 -0.74120616E-03 -0.21383912E-02  0.19932738E-02
  0.81625290E-03  0.92520596E-03  0.48142472E-03
 -0.35321478E-03 -0.12679368E-02 -0.31171163E-03
  0.18691516E-02  0.15640551E-02  0.10759611E-02
 -0.47389860E-04 -0.15949107E-02  0.97467669E-03
  0.91656180E-03 -0.86563081E-03  0.15013851E-02
  0.23047806E-03  0.20027734E-02 -0.53984089E-03
 -0.26204177E-04 -0.41332754E-03 -0.22641163E-02
 -0.26206271E-02  0.13919395E-03 -0.25486732E-02
  0.13653670E-02  0.13601408E-03  0.20217870E-02
  0.15848531E-02 -0.27462092E-02 -0.18087138E-02
 -0.90531401E-03  0.37362698E-02  0.39958294E-03
 -0.14769237E-02 -0.11684226E-02  0.32890009E-03
  0.28307328E-02 -0.52915953E-03 -0.15193793E-02
  0.16540585E-02 -0.14616863E-02  0.61107054E-03
 -0.30450544E-04  0.16263178E-02 -0.56168622E-03
 -0.43739115E-03  0.95894809E-03  0.98886786E-03
 -0.10982042E-02 -0.73142863E-03 -0.15022479E-04
  0.19358514E-02  0.77264325E-03  0.33466544E-03
  0.21067310E-03  0.70911117E-03  0.14409656E-02
  0.17725010E-02 -0.17623072E-02 -0.18287562E-02
  0.17127292E-02  0.77047335E-03 -0.15193740E-04
 -0.52474539E-02  0.12229851E-02  0.88663942E-03
 -0.48870088E-03 -0.85210225E-03  0.73321966E-03
  0.39476426E-03  0.87548525E-03  0.15314577E-02
 -0.28017618E-03 -0.11460897E-02 -0.29202940E-02
  0.40536190E-03 -0.20096612E-02 -0.10327513E-02
  0.24029185E-03  0.22008072E-02  0.63025893E-03
 -0.36924264E-03  0.23954259E-03  0.10243828E-02
 -0.28741081E-03 -0.14945081E-02 -0.10014896E-02
  0.14963661E-02 -0.10644369E-02  0.33422906E-03
  0.11940601E-02 -0.36526494E-03  0.17886923E-02
 -0.14647810E-02 -0.16223764E-02 -0.33192248E-02
  0.18496663E-02  0.28288684E-03  0.19498362E-02
 -0.19498705E-02  0.59353619E-03 -0.24531517E-03
 -0.13270745E-02  0.19486986E-02 -0.68436638E-03
 
           1
   1.00000000000000     
  0.39611264E+01  0.10398159E-02  0.10319345E-02  0.39600905E+01
  0.63235764E-01  0.52772311E+00  0.57592973E+00
  0.61105775E+00  0.95197141E+00  0.44677765E+00
  0.98299822E+00  0.65027862E+00  0.35308948E+00
  0.62122783E+00  0.14570700E+00  0.79396052E+00
  0.75443051E+00  0.90793124E+00  0.22638552E+00
  0.48539149E+00  0.21684583E+00  0.87549167E+00
  0.59800125E-03  0.16048784E+00  0.42020587E-01
  0.67626651E+00  0.42323477E+00  0.15439740E+00
  0.23379976E+00  0.56200499E+00  0.87908622E+00
  0.42417285E-01  0.73031210E+00  0.95656474E+00
  0.49607116E+00  0.81524591E+00  0.75024605E+00
  0.52445042E+00  0.47709451E+00  0.15235965E+00
  0.19620959E+00  0.86597669E+00  0.98951642E+00
  0.14092019E+00  0.36956214E+00  0.61525382E+00
  0.36224885E+00  0.25245395E+00  0.62213044E+00
  0.13943075E+00  0.28971124E-01  0.31122210E+00
  0.44717756E+00  0.94621787E+00  0.56352314E+00
  0.95870176E+00  0.96366333E+00  0.65324961E+00
  0.42720526E+00  0.62689875E+00  0.11226343E+00
  0.75920909E+00  0.64969719E+00  0.40257085E+00
  0.64184752E+00  0.74609939E+00  0.78213668E+00
  0.89076889E+00  0.77395369E+00  0.26128014E+00
  0.62596467E+00  0.73049335E+00  0.25791317E+00
  0.89901283E+00  0.78804826E+00  0.78319692E+00
  0.15659972E+00  0.20473106E+00  0.76176340E+00
  0.33527060E+00  0.43191200E+00  0.58289475E+00
  0.82041709E+00  0.10126704E+00  0.17804847E+00
  0.33787761E+00  0.41410945E+00  0.29176588E-01
  0.94696517E+00  0.32842482E+00  0.96448553E+00
  0.33844434E+00  0.25437881E+00  0.13969278E+00
  0.86320359E+00  0.50005464E+00  0.94837175E+00
  0.34468678E+00  0.38268911E-01  0.95339053E+00
  0.83633812E+00  0.94807747E-01  0.65552652E+00
  0.15880741E+00  0.68087790E+00  0.29945435E+00
  0.77122199E+00  0.27344118E+00  0.12690544E+00
  0.32170912E+00  0.78979908E+00  0.70908493E+00
  0.94869888E+00  0.98370433E+00  0.19811313E+00
  0.76045847E+00  0.64305247E+00  0.88291305E+00
  0.86206844E+00  0.50948065E+00  0.45399412E+00
  0.32982165E+00  0.79102365E+00  0.20343338E+00
  0.33352531E+00  0.38461359E-01  0.42839580E+00
  0.45191975E+00  0.60876158E+00  0.61155703E+00
  0.19573788E+00  0.90347151E+00  0.55355545E+00
  0.16141130E+00  0.20400119E+00  0.22972504E+00
  0.93184302E+00  0.31907296E+00  0.44816506E+00
  0.77146197E+00  0.26790162E+00  0.61126273E+00
  0.27625144E+00  0.56824658E+00  0.40192531E+00
  0.77251534E+00  0.91722229E+00  0.75224277E+00
  0.00000000E+00  0.00000000E+00  0.00000000E+00
  0.00000000E+00  0.00000000E+00  0.00000000E+00
  0.00000000E+00  0.00000000E+00  0.00000000E+00
  0.00000000E+00  0.00000000E+00  0.00000000E+00
  0.00000000E+00  0.00000000E+00  0.00000000E+00
  0.00000000E+00  0.00000000E+00  0.00000000E+00
  0.00000000E+00  0.00000000E+00  0.00000000E+00
  0.00000000E+00  0.00000000E+00  0.00000000E+00
  0.00000000E+00  0.00000000E+00  0.00000000E+00
  0.00000000E+00  0.00000000E+00  0.00000000E+00
  0.00000000E+00  0.00000000E+00  0.00000000E+00
  0.00000000E+00  0.00000000E+00  0.00000000E+00
  0.00000000E+00  0.00000000E+00  0.00000000E+00
  0.00000000E+00  0.00000000E+00  0.00000000E+00
  0.00000000E+00  0.00000000E+00  0.00000000E+00
  0.00000000E+00  0.00000000E+00  0.00000000E+00
  0.00000000E+00  0.00000000E+00  0.00000000E+00
  0.00000000E+00  0.00000000E+00  0.00000000E+00
  0.00000000E+00  0.00000000E+00  0.00000000E+00
  0.00000000E+00  0.00000000E+00  0.00000000E+00
  0.00000000E+00  0.00000000E+00  0.00000000E+00
  0.00000000E+00  0.00000000E+00  0.00000000E+00
  0.00000000E+00  0.00000000E+00  0.00000000E+00
  0.00000000E+00  0.00000000E+00  0.00000000E+00
  0.00000000E+00  0.00000000E+00  0.00000000E+00
  0.00000000E+00  0.00000000E+00  0.00000000E+00
  0.00000000E+00  0.00000000E+00  0.00000000E+00
  0.00000000E+00  0.00000000E+00  0.00000000E+00
  0.00000000E+00  0.00000000E+00  0.00000000E+00
  0.00000000E+00  0.00000000E+00  0.00000000E+00
  0.00000000E+00  0.00000000E+00  0.00000000E+00
  0.00000000E+00  0.00000000E+00  0.00000000E+00
  0.00000000E+00  0.00000000E+00  0.00000000E+00
  0.00000000E+00  0.00000000E+00  0.00000000E+00
  0.00000000E+00  0.00000000E+00  0.00000000E+00
  0.00000000E+00  0.00000000E+00  0.00000000E+00
  0.00000000E+00  0.00000000E+00  0.00000000E+00
  0.00000000E+00  0.00000000E+00  0.00000000E+00
  0.00000000E+00  0.00000000E+00  0.00000000E+00
  0.00000000E+00  0.00000000E+00  0.00000000E+00
  0.00000000E+00  0.00000000E+00  0.00000000E+00
  0.00000000E+00  0.00000000E+00  0.00000000E+00
  0.00000000E+00  0.00000000E+00  0.00000000E+00
  0.00000000E+00  0.00000000E+00  0.00000000E+00
  0.00000000E+00  0.00000000E+00  0.00000000E+00
  0.00000000E+00  0.00000000E+00  0.00000000E+00
  0.00000000E+00  0.00000000E+00  0.00000000E+00
  0.00000000E+00  0.00000000E+00  0.00000000E+00
  0.00000000E+00  0.00000000E+00  0.00000000E+00
  0.00000000E+00  0.00000000E+00  0.00000000E+00
  0.00000000E+00  0.00000000E+00  0.00000000E+00
  0.00000000E+00  0.00000000E+00  0.00000000E+00
  0.00000000E+00  0.00000000E+00  0.00000000E+00
  0.00000000E+00  0.00000000E+00  0.00000000E+00
  0.00000000E+00  0.00000000E+00  0.00000000E+00
  0.00000000E+00  0.00000000E+00  0.00000000E+00
  0.00000000E+00  0.00000000E+00  0.00000000E+00
  0.00000000E+00  0.00000000E+00  0.00000000E+00
  0.00000000E+00  0.00000000E+00  0.00000000E+00
  0.00000000E+00  0.00000000E+00  0.00000000E+00
  0.00000000E+00  0.00000000E+00  0.00000000E+00
  0.00000000E+00  0.00000000E+00  0.00000000E+00
  0.00000000E+00  0.00000000E+00  0.00000000E+00
  0.00000000E+00  0.00000000E+00  0.00000000E+00
  0.00000000E+00  0.00000000E+00  0.00000000E+00
  0.00000000E+00  0.00000000E+00  0.00000000E+00
  0.00000000E+00  0.00000000E+00  0.00000000E+00
  0.00000000E+00  0.00000000E+00  0.00000000E+00
  0.00000000E+00  0.00000000E+00  0.00000000E+00
  0.00000000E+00  0.00000000E+00  0.00000000E+00
  0.00000000E+00  0.00000000E+00  0.00000000E+00
  0.00000000E+00  0.00000000E+00  0.00000000E+00
  0.00000000E+00  0.00000000E+00  0.00000000E+00
  0.00000000E+00  0.00000000E+00  0.00000000E+00
  0.00000000E+00  0.00000000E+00  0.00000000E+00
  0.00000000E+00  0.00000000E+00  0.00000000E+00
  0.00000000E+00  0.00000000E+00  0.00000000E+00
  0.00000000E+00  0.00000000E+00  0.00000000E+00
  0.00000000E+00  0.00000000E+00  0.00000000E+00
  0.00000000E+00  0.00000000E+00  0.00000000E+00
  0.00000000E+00  0.00000000E+00  0.00000000E+00
  0.00000000E+00  0.00000000E+00  0.00000000E+00
  0.00000000E+00  0.00000000E+00  0.00000000E+00
  0.00000000E+00  0.00000000E+00  0.00000000E+00
  0.00000000E+00  0.00000000E+00  0.00000000E+00
  0.00000000E+00  0.00000000E+00  0.00000000E+00
  0.00000000E+00  0.00000000E+00  0.00000000E+00
  0.00000000E+00  0.00000000E+00  0.00000000E+00
  0.00000000E+00  0.00000000E+00  0.00000000E+00
  0.00000000E+00  0.00000000E+00  0.00000000E+00
  0.00000000E+00  0.00000000E+00  0.00000000E+00
  0.00000000E+00  0.00000000E+00  0.00000000E+00
  0.00000000E+00  0.00000000E+00  0.00000000E+00
  0.00000000E+00  0.00000000E+00  0.00000000E+00
  0.00000000E+00  0.00000000E+00  0.00000000E+00
  0.00000000E+00  0.00000000E+00  0.00000000E+00
