In Se                                   
   1.00000000000000     
    16.1247726200000017    0.0000000000000000    0.0000000000000000
     0.0000000000000000   16.1247726200000017    0.0000000000000000
     0.0000000000000000    0.0000000000000000    8.0623863100000008
   In   Se
    24    24
Direct
     0.1123985276628585    0.2474137231614278    0.0424292501559299
     0.4984095346396967    0.3728550469156092    0.3914936800496019
     0.5016609543298250    0.1372961982437046    0.4144084253192882
     0.7158027826768815    0.0236613824020079    0.8725236535819932
     0.7592203114960278    0.0079554422019054    0.3192939261254565
     0.8898014125305159    0.2581279731209091    0.1058039160395680
     0.6192927038901554    0.2347991477602292    0.9436527034346078
     0.6450095478255619    0.7368789372655783    0.1009061116273696
     0.8616528883588814    0.7601821056829345    0.0024733921015560
     0.7420722373842317    0.4887160607530724    0.2767926436925699
     0.7296126179695831    0.4828227902281911    0.7989976776546367
     0.9819492473598772    0.8612055601609645    0.4881832143419979
     0.9893459508016735    0.6209019499091282    0.4478979795833094
     0.2474110559420522    0.5030912997068335    0.2081038432533892
     0.2501987957455682    0.4948965721931252    0.7106688377132904
     0.1085957927380905    0.7507074149721392    0.9136330060679290
     0.4704000611872842    0.6338713834692293    0.5503112417411659
     0.5231402047652894    0.8766533099219955    0.5651083706159012
     0.3475533693296824    0.2627712700843449    0.8465127318629246
     0.2448397522225619    0.9929569741848633    0.1938323073493318
     0.2531412962677180    0.0036187306954631    0.7100949176683893
     0.0108644540384219    0.1051887421193751    0.5289962674111466
     0.4060140395588170    0.7462519897563837    0.0268460313682918
     0.0350903741474614    0.3953352010085258    0.5954178571087122
     0.5675113997371930    0.2673341925507051    0.6020993713145192
     0.8326056922058949    0.0953647158916601    0.0915211160436946
     0.7582908606902905    0.3585046428796325    0.0869422525386510
     0.5114151739847037    0.7571909433838153    0.2852476251098473
     0.8755655987611470    0.5030450779969917    0.4896976963291116
     0.5878030137424312    0.5105205263233290    0.3755711918617831
     0.5413012017942747    0.7413478555729557    0.8456528673482899
     0.4669642145526177    0.2498458997732437    0.1709281310823496
     0.3096512885913326    0.8912947446092060    0.9813750589976964
     0.6052584989527072    0.0189430059091112    0.4125501905174809
     0.7613700770554315    0.6287062649399454    0.0959742590402721
     0.2948621861526350    0.6162513355579597    0.9705222618063613
     0.9631393704634679    0.7329636996186079    0.6810501918786740
     0.9953711107836278    0.7641006605962155    0.2121887178285921
     0.3613264722928322    0.4682181873136142    0.4519055264917463
     0.1372212058074158    0.5400354493028583    0.4439030753854489
     0.2132940318637250    0.3803214211851403    0.9803639120814983
     0.1945141238377469    0.1058407093044176    0.9702286963196370
     0.9840256948637779    0.2695557294504359    0.8464482433852467
     0.0168588379850184    0.2546706351744618    0.3000182864784406
     0.3549341079604343    0.0496489787413468    0.4655706421490399
     0.1389880922432739    0.9527001875976158    0.4710795287742331
     0.8675723791554789    0.9776969121046242    0.5572859494102389
     0.7423471928780864    0.8685749407131408    0.1327953677811678
 
 -0.12410518E-02  0.90009532E-03 -0.12186502E-03
 -0.99047741E-03  0.48159554E-03 -0.14446731E-02
 -0.14898585E-02  0.32102978E-03 -0.11526987E-03
 -0.11615652E-02 -0.13048979E-02  0.72961492E-03
  0.25214603E-03  0.13678857E-02 -0.12195051E-03
 -0.15053397E-02 -0.59885710E-03  0.12342459E-02
  0.70380199E-04 -0.10937548E-02 -0.14936628E-02
  0.10655151E-02  0.92929349E-03 -0.88905142E-03
  0.46158149E-02  0.18246131E-02  0.81850967E-03
 -0.13904147E-02 -0.19172589E-02 -0.12033665E-03
  0.80002963E-03 -0.29579492E-04 -0.12742507E-02
 -0.23829773E-04  0.34025111E-02 -0.76199469E-03
 -0.28416637E-03 -0.24524846E-02 -0.13932873E-02
 -0.56552524E-03 -0.13693987E-02 -0.12946646E-02
  0.31795725E-03  0.10143113E-02 -0.14181159E-02
 -0.15844393E-02  0.35283313E-03  0.13446929E-04
  0.29352785E-02  0.75036032E-03 -0.94251497E-03
 -0.57017810E-04 -0.16085947E-02  0.36991102E-02
 -0.57484850E-04 -0.25317444E-03  0.95394632E-03
 -0.10582776E-02  0.20158724E-02 -0.27733549E-02
 -0.13977531E-02 -0.14146736E-02 -0.18068101E-03
  0.34865757E-03 -0.30348571E-04  0.18769658E-02
 -0.85802523E-04 -0.50554660E-03 -0.33346722E-03
  0.17027608E-03  0.16362760E-02 -0.34371081E-03
 -0.27526859E-02  0.13152844E-02  0.13359946E-02
  0.32529612E-02 -0.12857780E-02 -0.63136042E-04
  0.17898058E-02 -0.15077917E-02  0.20475196E-02
  0.25576870E-02 -0.95521614E-03  0.32113022E-02
 -0.24647416E-02 -0.33532801E-03  0.18273126E-02
 -0.43613301E-02  0.21752533E-02  0.52704016E-04
  0.65500388E-03  0.24043725E-02  0.33375345E-02
  0.16183768E-02 -0.91894676E-03  0.62576617E-03
 -0.13157165E-03 -0.79434835E-03  0.12855861E-02
 -0.19361503E-02  0.15418641E-04 -0.13000601E-02
  0.16701209E-02  0.20805926E-02  0.24040175E-02
 -0.29656447E-02 -0.15176374E-02 -0.89275515E-03
 -0.36051026E-03  0.16168212E-02 -0.17004428E-02
 -0.78223355E-03  0.21871065E-02 -0.15940955E-02
 -0.22890366E-02 -0.14930973E-02 -0.14216893E-02
  0.17484197E-02  0.17075640E-02 -0.38719110E-03
 -0.49002736E-03 -0.40036433E-02  0.99731686E-03
  0.34836870E-02 -0.25951287E-02  0.12909709E-02
 -0.34862091E-03 -0.43167610E-03 -0.11766788E-02
 -0.78978700E-03 -0.82445937E-03  0.80023906E-03
 -0.13915591E-02  0.17199022E-03 -0.22688580E-02
  0.18834775E-02 -0.19278755E-02  0.11532860E-02
  0.19622604E-02 -0.84209633E-04 -0.58399055E-03
  0.38112989E-02  0.14844316E-02 -0.69632059E-03
 
           1
   1.00000000000000     
  0.77982048E+00 -0.26197093E-03 -0.28229492E-03  0.78009261E+00
  0.11232156E+00  0.24746954E+00  0.42414135E-01
  0.49834811E+00  0.37288491E+00  0.39131449E+00
  0.50156856E+00  0.13731611E+00  0.41439413E+00
  0.71573075E+00  0.23580457E-01  0.87261415E+00
  0.75923595E+00  0.80402735E-02  0.31927880E+00
  0.88970806E+00  0.25809083E+00  0.10595700E+00
  0.61929707E+00  0.23473132E+00  0.94346744E+00
  0.64507563E+00  0.73693657E+00  0.10079584E+00
  0.86193914E+00  0.76029526E+00  0.25749141E-02
  0.74198601E+00  0.48859716E+00  0.27677772E+00
  0.72966223E+00  0.48282096E+00  0.79883963E+00
  0.98194777E+00  0.86141657E+00  0.48808870E+00
  0.98932833E+00  0.62074986E+00  0.44772517E+00
  0.24737598E+00  0.50300637E+00  0.20794326E+00
  0.25021851E+00  0.49495948E+00  0.71049294E+00
  0.10849753E+00  0.75072930E+00  0.91363467E+00
  0.47058210E+00  0.63391792E+00  0.55019434E+00
  0.52313667E+00  0.87655355E+00  0.56556718E+00
  0.34754980E+00  0.26275557E+00  0.84663105E+00
  0.24477412E+00  0.99308199E+00  0.19348832E+00
  0.25305461E+00  0.35309978E-02  0.71007251E+00
  0.10886077E-01  0.10518686E+00  0.52922907E+00
  0.40600872E+00  0.74622064E+00  0.26804671E-01
  0.35100934E-01  0.39543668E+00  0.59537523E+00
  0.56734069E+00  0.26741576E+00  0.60226508E+00
  0.83280743E+00  0.95284977E-01  0.91513285E-01
  0.75840186E+00  0.35841114E+00  0.87196212E-01
  0.51157379E+00  0.75713170E+00  0.28564593E+00
  0.87541274E+00  0.50302428E+00  0.48992434E+00
  0.58753254E+00  0.51065543E+00  0.37557773E+00
  0.54134182E+00  0.74149697E+00  0.84606683E+00
  0.46706458E+00  0.24978891E+00  0.17100575E+00
  0.30964313E+00  0.89124548E+00  0.98153451E+00
  0.60513843E+00  0.18943962E-01  0.41238894E+00
  0.76147365E+00  0.62883530E+00  0.96272436E-01
  0.29467827E+00  0.61615722E+00  0.97041153E+00
  0.96311701E+00  0.73306397E+00  0.68083928E+00
  0.99532260E+00  0.76423630E+00  0.21199100E+00
  0.36118451E+00  0.46812559E+00  0.45172919E+00
  0.13732964E+00  0.54014135E+00  0.44385505E+00
  0.21326364E+00  0.38007313E+00  0.98048761E+00
  0.19473017E+00  0.10567977E+00  0.97038882E+00
  0.98400407E+00  0.26952896E+00  0.84630230E+00
  0.16809858E-01  0.25461951E+00  0.30011754E+00
  0.35484781E+00  0.49659645E-01  0.46528923E+00
  0.13910490E+00  0.95258063E+00  0.47122257E+00
  0.86769407E+00  0.97769169E+00  0.55721352E+00
  0.74258356E+00  0.86866700E+00  0.13270900E+00
  0.00000000E+00  0.00000000E+00  0.00000000E+00
  0.00000000E+00  0.00000000E+00  0.00000000E+00
  0.00000000E+00  0.00000000E+00  0.00000000E+00
  0.00000000E+00  0.00000000E+00  0.00000000E+00
  0.00000000E+00  0.00000000E+00  0.00000000E+00
  0.00000000E+00  0.00000000E+00  0.00000000E+00
  0.00000000E+00  0.00000000E+00  0.00000000E+00
  0.00000000E+00  0.00000000E+00  0.00000000E+00
  0.00000000E+00  0.00000000E+00  0.00000000E+00
  0.00000000E+00  0.00000000E+00  0.00000000E+00
  0.00000000E+00  0.00000000E+00  0.00000000E+00
  0.00000000E+00  0.00000000E+00  0.00000000E+00
  0.00000000E+00  0.00000000E+00  0.00000000E+00
  0.00000000E+00  0.00000000E+00  0.00000000E+00
  0.00000000E+00  0.00000000E+00  0.00000000E+00
  0.00000000E+00  0.00000000E+00  0.00000000E+00
  0.00000000E+00  0.00000000E+00  0.00000000E+00
  0.00000000E+00  0.00000000E+00  0.00000000E+00
  0.00000000E+00  0.00000000E+00  0.00000000E+00
  0.00000000E+00  0.00000000E+00  0.00000000E+00
  0.00000000E+00  0.00000000E+00  0.00000000E+00
  0.00000000E+00  0.00000000E+00  0.00000000E+00
  0.00000000E+00  0.00000000E+00  0.00000000E+00
  0.00000000E+00  0.00000000E+00  0.00000000E+00
  0.00000000E+00  0.00000000E+00  0.00000000E+00
  0.00000000E+00  0.00000000E+00  0.00000000E+00
  0.00000000E+00  0.00000000E+00  0.00000000E+00
  0.00000000E+00  0.00000000E+00  0.00000000E+00
  0.00000000E+00  0.00000000E+00  0.00000000E+00
  0.00000000E+00  0.00000000E+00  0.00000000E+00
  0.00000000E+00  0.00000000E+00  0.00000000E+00
  0.00000000E+00  0.00000000E+00  0.00000000E+00
  0.00000000E+00  0.00000000E+00  0.00000000E+00
  0.00000000E+00  0.00000000E+00  0.00000000E+00
  0.00000000E+00  0.00000000E+00  0.00000000E+00
  0.00000000E+00  0.00000000E+00  0.00000000E+00
  0.00000000E+00  0.00000000E+00  0.00000000E+00
  0.00000000E+00  0.00000000E+00  0.00000000E+00
  0.00000000E+00  0.00000000E+00  0.00000000E+00
  0.00000000E+00  0.00000000E+00  0.00000000E+00
  0.00000000E+00  0.00000000E+00  0.00000000E+00
  0.00000000E+00  0.00000000E+00  0.00000000E+00
  0.00000000E+00  0.00000000E+00  0.00000000E+00
  0.00000000E+00  0.00000000E+00  0.00000000E+00
  0.00000000E+00  0.00000000E+00  0.00000000E+00
  0.00000000E+00  0.00000000E+00  0.00000000E+00
  0.00000000E+00  0.00000000E+00  0.00000000E+00
  0.00000000E+00  0.00000000E+00  0.00000000E+00
  0.00000000E+00  0.00000000E+00  0.00000000E+00
  0.00000000E+00  0.00000000E+00  0.00000000E+00
  0.00000000E+00  0.00000000E+00  0.00000000E+00
  0.00000000E+00  0.00000000E+00  0.00000000E+00
  0.00000000E+00  0.00000000E+00  0.00000000E+00
  0.00000000E+00  0.00000000E+00  0.00000000E+00
  0.00000000E+00  0.00000000E+00  0.00000000E+00
  0.00000000E+00  0.00000000E+00  0.00000000E+00
  0.00000000E+00  0.00000000E+00  0.00000000E+00
  0.00000000E+00  0.00000000E+00  0.00000000E+00
  0.00000000E+00  0.00000000E+00  0.00000000E+00
  0.00000000E+00  0.00000000E+00  0.00000000E+00
  0.00000000E+00  0.00000000E+00  0.00000000E+00
  0.00000000E+00  0.00000000E+00  0.00000000E+00
  0.00000000E+00  0.00000000E+00  0.00000000E+00
  0.00000000E+00  0.00000000E+00  0.00000000E+00
  0.00000000E+00  0.00000000E+00  0.00000000E+00
  0.00000000E+00  0.00000000E+00  0.00000000E+00
  0.00000000E+00  0.00000000E+00  0.00000000E+00
  0.00000000E+00  0.00000000E+00  0.00000000E+00
  0.00000000E+00  0.00000000E+00  0.00000000E+00
  0.00000000E+00  0.00000000E+00  0.00000000E+00
  0.00000000E+00  0.00000000E+00  0.00000000E+00
  0.00000000E+00  0.00000000E+00  0.00000000E+00
  0.00000000E+00  0.00000000E+00  0.00000000E+00
  0.00000000E+00  0.00000000E+00  0.00000000E+00
  0.00000000E+00  0.00000000E+00  0.00000000E+00
  0.00000000E+00  0.00000000E+00  0.00000000E+00
  0.00000000E+00  0.00000000E+00  0.00000000E+00
  0.00000000E+00  0.00000000E+00  0.00000000E+00
  0.00000000E+00  0.00000000E+00  0.00000000E+00
  0.00000000E+00  0.00000000E+00  0.00000000E+00
  0.00000000E+00  0.00000000E+00  0.00000000E+00
  0.00000000E+00  0.00000000E+00  0.00000000E+00
  0.00000000E+00  0.00000000E+00  0.00000000E+00
  0.00000000E+00  0.00000000E+00  0.00000000E+00
  0.00000000E+00  0.00000000E+00  0.00000000E+00
  0.00000000E+00  0.00000000E+00  0.00000000E+00
  0.00000000E+00  0.00000000E+00  0.00000000E+00
  0.00000000E+00  0.00000000E+00  0.00000000E+00
  0.00000000E+00  0.00000000E+00  0.00000000E+00
  0.00000000E+00  0.00000000E+00  0.00000000E+00
  0.00000000E+00  0.00000000E+00  0.00000000E+00
  0.00000000E+00  0.00000000E+00  0.00000000E+00
  0.00000000E+00  0.00000000E+00  0.00000000E+00
  0.00000000E+00  0.00000000E+00  0.00000000E+00
  0.00000000E+00  0.00000000E+00  0.00000000E+00
  0.00000000E+00  0.00000000E+00  0.00000000E+00
